p cnf 41 57
-24 5 0 
-10 20 0 
-16 28 0 
-6 40 0 
-3 21 0 
-37 12 0 
-34 17 0 
-18 27 0 
-31 2 4 0 
-13 26 0 
-9 38 0 
-3 27 0 
-17 34 0 
-28 2 3 16 0 
-25 2 0 
-32 3 0 
-8 39 0 
-29 3 0 
-12 37 0 
-27 3 18 0 
-35 11 0 
-6 23 0 
-2 28 0 
-20 10 0 
-2 31 0 
-4 41 0 
-40 6 12 0 
-3 32 0 
-1 33 0 
7 13 0 
-33 1 12 0 
-7 26 0 
-30 10 0 
-21 3 5 0 
-11 35 0 
-39 8 0 
-3 29 0 
-4 31 0 
-14 38 0 
-5 24 0 
-26 7 13 0 
-23 6 0 
-10 30 0 
-3 28 0 
-12 40 0 
-9 22 0 
-16 36 0 
-22 9 0 
-38 9 14 0 
-5 21 0 
-15 19 0 
-36 16 0 
-12 33 0 
-41 4 13 0 
-19 15 0 
-2 25 0 
-13 41 0 
